nK = 1559;
nT = 6;
nI = 14;
L = 29;
TT = 323;
np = 1;
nc = 3;
b = [40, 56, 47, 24, 37, 46, 54, 31, 42, 66, 58, 60, 29, 48];
d = [130, 118, 88, 122, 86, 133, 116, 121, 107, 118, 124, 136, 91, 90];
m = [2.4, 1.3, 2.1, 2.2, 2, 1.5, 2.4, 1.4, 1.1, 1, 1, 2.5, 1.8, 2.4];
pt = [0.31, 0.35, 0.26, 0.31, 0.21, 0.2];
st = [13.02, 21, 11.18, 16.43, 8.4, 11.2];
arc = {<1, 0, 1, 1, 0, 0, 0, [1, 1, 1, 1, 1, 1]>, <2, 1, 2, 1, 0, 0, 0, [1, 1, 1, 1, 1, 1]>, <3, 2, 3, 1, 0, 0, 0, [1, 1, 1, 1, 1, 1]>, <4, 3, 4, 1, 0, 0, 0, [1, 1, 1, 1, 1, 1]>, <5, 4, 5, 1, 0, 0, 0, [1, 1, 1, 1, 1, 1]>, <6, 5, 6, 1, 0, 0, 0, [1, 1, 1, 1, 1, 1]>, <7, 6, 7, 1, 0, 0, 0, [1, 1, 1, 1, 1, 1]>, <8, 7, 8, 1, 0, 0, 0, [1, 1, 1, 1, 1, 1]>, <9, 8, 9, 1, 0, 0, 0, [1, 1, 1, 1, 1, 1]>, <10, 9, 10, 1, 0, 0, 0, [1, 1, 1, 1, 1, 1]>, <11, 10, 11, 1, 0, 0, 0, [1, 1, 1, 1, 1, 1]>, <12, 11, 12, 1, 0, 0, 0, [1, 1, 1, 1, 1, 1]>, <13, 12, 13, 1, 0, 0, 0, [1, 1, 1, 1, 1, 1]>, <14, 13, 14, 1, 0, 0, 0, [1, 1, 1, 1, 1, 1]>, <15, 14, 15, 1, 0, 0, 0, [1, 1, 1, 1, 1, 1]>, <16, 15, 16, 1, 0, 0, 0, [1, 1, 1, 1, 1, 1]>, <17, 16, 17, 1, 0, 0, 0, [1, 1, 1, 1, 1, 1]>, <18, 17, 18, 1, 0, 0, 0, [1, 1, 1, 1, 1, 1]>, <19, 18, 19, 1, 0, 0, 0, [1, 1, 1, 1, 1, 1]>, <20, 19, 20, 1, 0, 0, 0, [1, 1, 1, 1, 1, 1]>, <21, 20, 21, 1, 0, 0, 0, [1, 1, 1, 1, 1, 1]>, <22, 21, 22, 1, 0, 0, 0, [1, 1, 1, 1, 1, 1]>, <23, 22, 23, 1, 0, 0, 0, [1, 1, 1, 1, 1, 1]>, <24, 23, 24, 1, 0, 0, 0, [1, 1, 1, 1, 1, 1]>, <25, 24, 25, 1, 0, 0, 0, [1, 1, 1, 1, 1, 1]>, <26, 25, 26, 1, 0, 0, 0, [1, 1, 1, 1, 1, 1]>, <27, 26, 27, 1, 0, 0, 0, [1, 1, 1, 1, 1, 1]>, <28, 27, 28, 1, 0, 0, 0, [1, 1, 1, 1, 1, 1]>, <29, 28, 29, 1, 0, 0, 0, [1, 1, 1, 1, 1, 1]>, <30, 1, 12, 11, 1, 0, 1, [1, 0, 0, 0, 0, 1]>, <31, 2, 13, 11, 1, 0, 1, [1, 0, 0, 0, 0, 1]>, <32, 3, 14, 11, 1, 0, 1, [1, 0, 0, 0, 0, 1]>, <33, 4, 15, 11, 1, 0, 1, [1, 0, 0, 0, 0, 1]>, <34, 5, 16, 11, 1, 0, 1, [1, 0, 0, 0, 0, 1]>, <35, 9, 20, 11, 1, 0, 1, [1, 0, 0, 0, 0, 1]>, <36, 10, 21, 11, 1, 0, 1, [1, 0, 0, 0, 0, 1]>, <37, 11, 22, 11, 1, 0, 1, [1, 0, 0, 0, 0, 1]>, <38, 12, 23, 11, 1, 0, 1, [1, 0, 0, 0, 0, 1]>, <39, 13, 24, 11, 1, 0, 1, [1, 0, 0, 0, 0, 1]>, <40, 14, 25, 11, 1, 0, 1, [1, 0, 0, 0, 0, 1]>, <41, 15, 26, 11, 1, 0, 1, [1, 0, 0, 0, 0, 1]>, <42, 16, 27, 11, 1, 0, 1, [1, 0, 0, 0, 0, 1]>, <43, 17, 28, 11, 1, 0, 1, [1, 0, 0, 0, 0, 1]>, <44, 18, 29, 11, 1, 0, 1, [1, 0, 0, 0, 0, 1]>, <45, 0, 13, 13, 2, 0, 1, [0, 0, 0, 1, 1, 0]>, <46, 1, 14, 13, 2, 0, 1, [0, 0, 0, 1, 1, 0]>, <47, 2, 15, 13, 2, 0, 1, [0, 0, 0, 1, 1, 0]>, <48, 3, 16, 13, 2, 0, 1, [0, 0, 0, 1, 1, 0]>, <49, 4, 17, 13, 2, 0, 1, [0, 0, 0, 1, 1, 0]>, <50, 5, 18, 13, 2, 0, 1, [0, 0, 0, 1, 1, 0]>, <51, 7, 20, 13, 2, 0, 1, [0, 0, 0, 1, 1, 0]>, <52, 8, 21, 13, 2, 0, 1, [0, 0, 0, 1, 1, 0]>, <53, 9, 22, 13, 2, 0, 1, [0, 0, 0, 1, 1, 0]>, <54, 10, 23, 13, 2, 0, 1, [0, 0, 0, 1, 1, 0]>, <55, 11, 24, 13, 2, 0, 1, [0, 0, 0, 1, 1, 0]>, <56, 12, 25, 13, 2, 0, 1, [0, 0, 0, 1, 1, 0]>, <57, 13, 26, 13, 2, 0, 1, [0, 0, 0, 1, 1, 0]>, <58, 14, 27, 13, 2, 0, 1, [0, 0, 0, 1, 1, 0]>, <59, 15, 28, 13, 2, 0, 1, [0, 0, 0, 1, 1, 0]>, <60, 16, 29, 13, 2, 0, 1, [0, 0, 0, 1, 1, 0]>, <61, 0, 12, 12, 3, 0, 0, [0, 1, 1, 0, 0, 0]>, <62, 1, 13, 12, 3, 0, 0, [0, 1, 1, 0, 0, 0]>, <63, 2, 14, 12, 3, 0, 0, [0, 1, 1, 0, 0, 0]>, <64, 3, 15, 12, 3, 0, 0, [0, 1, 1, 0, 0, 0]>, <65, 4, 16, 12, 3, 0, 0, [0, 1, 1, 0, 0, 0]>, <66, 5, 17, 12, 3, 0, 0, [0, 1, 1, 0, 0, 0]>, <67, 8, 20, 12, 3, 0, 0, [0, 1, 1, 0, 0, 0]>, <68, 9, 21, 12, 3, 0, 0, [0, 1, 1, 0, 0, 0]>, <69, 10, 22, 12, 3, 0, 0, [0, 1, 1, 0, 0, 0]>, <70, 11, 23, 12, 3, 0, 0, [0, 1, 1, 0, 0, 0]>, <71, 12, 24, 12, 3, 0, 0, [0, 1, 1, 0, 0, 0]>, <72, 13, 25, 12, 3, 0, 0, [0, 1, 1, 0, 0, 0]>, <73, 14, 26, 12, 3, 0, 0, [0, 1, 1, 0, 0, 0]>, <74, 15, 27, 12, 3, 0, 0, [0, 1, 1, 0, 0, 0]>, <75, 16, 28, 12, 3, 0, 0, [0, 1, 1, 0, 0, 0]>, <76, 17, 29, 12, 3, 0, 0, [0, 1, 1, 0, 0, 0]>, <77, 0, 13, 13, 4, 0, 0, [0, 0, 0, 0, 1, 1]>, <78, 1, 14, 13, 4, 0, 0, [0, 0, 0, 0, 1, 1]>, <79, 2, 15, 13, 4, 0, 0, [0, 0, 0, 0, 1, 1]>, <80, 3, 16, 13, 4, 0, 0, [0, 0, 0, 0, 1, 1]>, <81, 4, 17, 13, 4, 0, 0, [0, 0, 0, 0, 1, 1]>, <82, 5, 18, 13, 4, 0, 0, [0, 0, 0, 0, 1, 1]>, <83, 7, 20, 13, 4, 0, 0, [0, 0, 0, 0, 1, 1]>, <84, 8, 21, 13, 4, 0, 0, [0, 0, 0, 0, 1, 1]>, <85, 9, 22, 13, 4, 0, 0, [0, 0, 0, 0, 1, 1]>, <86, 10, 23, 13, 4, 0, 0, [0, 0, 0, 0, 1, 1]>, <87, 11, 24, 13, 4, 0, 0, [0, 0, 0, 0, 1, 1]>, <88, 12, 25, 13, 4, 0, 0, [0, 0, 0, 0, 1, 1]>, <89, 13, 26, 13, 4, 0, 0, [0, 0, 0, 0, 1, 1]>, <90, 14, 27, 13, 4, 0, 0, [0, 0, 0, 0, 1, 1]>, <91, 15, 28, 13, 4, 0, 0, [0, 0, 0, 0, 1, 1]>, <92, 16, 29, 13, 4, 0, 0, [0, 0, 0, 0, 1, 1]>, <93, 0, 15, 15, 5, 0, 0, [0, 1, 1, 0, 0, 0]>, <94, 1, 16, 15, 5, 0, 0, [0, 1, 1, 0, 0, 0]>, <95, 2, 17, 15, 5, 0, 0, [0, 1, 1, 0, 0, 0]>, <96, 3, 18, 15, 5, 0, 0, [0, 1, 1, 0, 0, 0]>, <97, 4, 19, 15, 5, 0, 0, [0, 1, 1, 0, 0, 0]>, <98, 5, 20, 15, 5, 0, 0, [0, 1, 1, 0, 0, 0]>, <99, 6, 21, 15, 5, 0, 0, [0, 1, 1, 0, 0, 0]>, <100, 7, 22, 15, 5, 0, 0, [0, 1, 1, 0, 0, 0]>, <101, 8, 23, 15, 5, 0, 0, [0, 1, 1, 0, 0, 0]>, <102, 9, 24, 15, 5, 0, 0, [0, 1, 1, 0, 0, 0]>, <103, 10, 25, 15, 5, 0, 0, [0, 1, 1, 0, 0, 0]>, <104, 11, 26, 15, 5, 0, 0, [0, 1, 1, 0, 0, 0]>, <105, 12, 27, 15, 5, 0, 0, [0, 1, 1, 0, 0, 0]>, <106, 13, 28, 15, 5, 0, 0, [0, 1, 1, 0, 0, 0]>, <107, 14, 29, 15, 5, 0, 0, [0, 1, 1, 0, 0, 0]>, <108, 1, 12, 11, 6, 0, 0, [0, 0, 1, 1, 0, 0]>, <109, 2, 13, 11, 6, 0, 0, [0, 0, 1, 1, 0, 0]>, <110, 3, 14, 11, 6, 0, 0, [0, 0, 1, 1, 0, 0]>, <111, 4, 15, 11, 6, 0, 0, [0, 0, 1, 1, 0, 0]>, <112, 5, 16, 11, 6, 0, 0, [0, 0, 1, 1, 0, 0]>, <113, 9, 20, 11, 6, 0, 0, [0, 0, 1, 1, 0, 0]>, <114, 10, 21, 11, 6, 0, 0, [0, 0, 1, 1, 0, 0]>, <115, 11, 22, 11, 6, 0, 0, [0, 0, 1, 1, 0, 0]>, <116, 12, 23, 11, 6, 0, 0, [0, 0, 1, 1, 0, 0]>, <117, 13, 24, 11, 6, 0, 0, [0, 0, 1, 1, 0, 0]>, <118, 14, 25, 11, 6, 0, 0, [0, 0, 1, 1, 0, 0]>, <119, 15, 26, 11, 6, 0, 0, [0, 0, 1, 1, 0, 0]>, <120, 16, 27, 11, 6, 0, 0, [0, 0, 1, 1, 0, 0]>, <121, 17, 28, 11, 6, 0, 0, [0, 0, 1, 1, 0, 0]>, <122, 18, 29, 11, 6, 0, 0, [0, 0, 1, 1, 0, 0]>, <123, 0, 14, 14, 7, 0, 1, [1, 1, 0, 0, 0, 0]>, <124, 1, 15, 14, 7, 0, 1, [1, 1, 0, 0, 0, 0]>, <125, 2, 16, 14, 7, 0, 1, [1, 1, 0, 0, 0, 0]>, <126, 3, 17, 14, 7, 0, 1, [1, 1, 0, 0, 0, 0]>, <127, 4, 18, 14, 7, 0, 1, [1, 1, 0, 0, 0, 0]>, <128, 5, 19, 14, 7, 0, 1, [1, 1, 0, 0, 0, 0]>, <129, 6, 20, 14, 7, 0, 1, [1, 1, 0, 0, 0, 0]>, <130, 7, 21, 14, 7, 0, 1, [1, 1, 0, 0, 0, 0]>, <131, 8, 22, 14, 7, 0, 1, [1, 1, 0, 0, 0, 0]>, <132, 9, 23, 14, 7, 0, 1, [1, 1, 0, 0, 0, 0]>, <133, 10, 24, 14, 7, 0, 1, [1, 1, 0, 0, 0, 0]>, <134, 11, 25, 14, 7, 0, 1, [1, 1, 0, 0, 0, 0]>, <135, 12, 26, 14, 7, 0, 1, [1, 1, 0, 0, 0, 0]>, <136, 13, 27, 14, 7, 0, 1, [1, 1, 0, 0, 0, 0]>, <137, 14, 28, 14, 7, 0, 1, [1, 1, 0, 0, 0, 0]>, <138, 15, 29, 14, 7, 0, 1, [1, 1, 0, 0, 0, 0]>, <139, 1, 12, 11, 8, 0, 0, [0, 1, 1, 0, 0, 0]>, <140, 2, 13, 11, 8, 0, 0, [0, 1, 1, 0, 0, 0]>, <141, 3, 14, 11, 8, 0, 0, [0, 1, 1, 0, 0, 0]>, <142, 4, 15, 11, 8, 0, 0, [0, 1, 1, 0, 0, 0]>, <143, 5, 16, 11, 8, 0, 0, [0, 1, 1, 0, 0, 0]>, <144, 9, 20, 11, 8, 0, 0, [0, 1, 1, 0, 0, 0]>, <145, 10, 21, 11, 8, 0, 0, [0, 1, 1, 0, 0, 0]>, <146, 11, 22, 11, 8, 0, 0, [0, 1, 1, 0, 0, 0]>, <147, 12, 23, 11, 8, 0, 0, [0, 1, 1, 0, 0, 0]>, <148, 13, 24, 11, 8, 0, 0, [0, 1, 1, 0, 0, 0]>, <149, 14, 25, 11, 8, 0, 0, [0, 1, 1, 0, 0, 0]>, <150, 15, 26, 11, 8, 0, 0, [0, 1, 1, 0, 0, 0]>, <151, 16, 27, 11, 8, 0, 0, [0, 1, 1, 0, 0, 0]>, <152, 17, 28, 11, 8, 0, 0, [0, 1, 1, 0, 0, 0]>, <153, 18, 29, 11, 8, 0, 0, [0, 1, 1, 0, 0, 0]>, <154, 2, 12, 10, 9, 0, 0, [0, 0, 0, 1, 1, 0]>, <155, 3, 13, 10, 9, 0, 0, [0, 0, 0, 1, 1, 0]>, <156, 4, 14, 10, 9, 0, 0, [0, 0, 0, 1, 1, 0]>, <157, 5, 15, 10, 9, 0, 0, [0, 0, 0, 1, 1, 0]>, <158, 10, 20, 10, 9, 0, 0, [0, 0, 0, 1, 1, 0]>, <159, 11, 21, 10, 9, 0, 0, [0, 0, 0, 1, 1, 0]>, <160, 12, 22, 10, 9, 0, 0, [0, 0, 0, 1, 1, 0]>, <161, 14, 24, 10, 9, 0, 0, [0, 0, 0, 1, 1, 0]>, <162, 15, 25, 10, 9, 0, 0, [0, 0, 0, 1, 1, 0]>, <163, 16, 26, 10, 9, 0, 0, [0, 0, 0, 1, 1, 0]>, <164, 17, 27, 10, 9, 0, 0, [0, 0, 0, 1, 1, 0]>, <165, 18, 28, 10, 9, 0, 0, [0, 0, 0, 1, 1, 0]>, <166, 19, 29, 10, 9, 0, 0, [0, 0, 0, 1, 1, 0]>, <167, 0, 14, 14, 10, 0, 0, [0, 0, 0, 0, 1, 1]>, <168, 1, 15, 14, 10, 0, 0, [0, 0, 0, 0, 1, 1]>, <169, 2, 16, 14, 10, 0, 0, [0, 0, 0, 0, 1, 1]>, <170, 3, 17, 14, 10, 0, 0, [0, 0, 0, 0, 1, 1]>, <171, 4, 18, 14, 10, 0, 0, [0, 0, 0, 0, 1, 1]>, <172, 5, 19, 14, 10, 0, 0, [0, 0, 0, 0, 1, 1]>, <173, 6, 20, 14, 10, 0, 0, [0, 0, 0, 0, 1, 1]>, <174, 7, 21, 14, 10, 0, 0, [0, 0, 0, 0, 1, 1]>, <175, 8, 22, 14, 10, 0, 0, [0, 0, 0, 0, 1, 1]>, <176, 9, 23, 14, 10, 0, 0, [0, 0, 0, 0, 1, 1]>, <177, 10, 24, 14, 10, 0, 0, [0, 0, 0, 0, 1, 1]>, <178, 11, 25, 14, 10, 0, 0, [0, 0, 0, 0, 1, 1]>, <179, 12, 26, 14, 10, 0, 0, [0, 0, 0, 0, 1, 1]>, <180, 13, 27, 14, 10, 0, 0, [0, 0, 0, 0, 1, 1]>, <181, 14, 28, 14, 10, 0, 0, [0, 0, 0, 0, 1, 1]>, <182, 15, 29, 14, 10, 0, 0, [0, 0, 0, 0, 1, 1]>, <183, 0, 12, 12, 11, 0, 1, [1, 1, 0, 0, 0, 0]>, <184, 1, 13, 12, 11, 0, 1, [1, 1, 0, 0, 0, 0]>, <185, 2, 14, 12, 11, 0, 1, [1, 1, 0, 0, 0, 0]>, <186, 3, 15, 12, 11, 0, 1, [1, 1, 0, 0, 0, 0]>, <187, 4, 16, 12, 11, 0, 1, [1, 1, 0, 0, 0, 0]>, <188, 5, 17, 12, 11, 0, 1, [1, 1, 0, 0, 0, 0]>, <189, 8, 20, 12, 11, 0, 1, [1, 1, 0, 0, 0, 0]>, <190, 9, 21, 12, 11, 0, 1, [1, 1, 0, 0, 0, 0]>, <191, 10, 22, 12, 11, 0, 1, [1, 1, 0, 0, 0, 0]>, <192, 11, 23, 12, 11, 0, 1, [1, 1, 0, 0, 0, 0]>, <193, 12, 24, 12, 11, 0, 1, [1, 1, 0, 0, 0, 0]>, <194, 13, 25, 12, 11, 0, 1, [1, 1, 0, 0, 0, 0]>, <195, 14, 26, 12, 11, 0, 1, [1, 1, 0, 0, 0, 0]>, <196, 15, 27, 12, 11, 0, 1, [1, 1, 0, 0, 0, 0]>, <197, 16, 28, 12, 11, 0, 1, [1, 1, 0, 0, 0, 0]>, <198, 17, 29, 12, 11, 0, 1, [1, 1, 0, 0, 0, 0]>, <199, 0, 14, 14, 12, 1, 0, [0, 0, 0, 1, 1, 0]>, <200, 1, 15, 14, 12, 1, 0, [0, 0, 0, 1, 1, 0]>, <201, 2, 16, 14, 12, 1, 0, [0, 0, 0, 1, 1, 0]>, <202, 3, 17, 14, 12, 1, 0, [0, 0, 0, 1, 1, 0]>, <203, 4, 18, 14, 12, 1, 0, [0, 0, 0, 1, 1, 0]>, <204, 5, 19, 14, 12, 1, 0, [0, 0, 0, 1, 1, 0]>, <205, 6, 20, 14, 12, 1, 0, [0, 0, 0, 1, 1, 0]>, <206, 7, 21, 14, 12, 1, 0, [0, 0, 0, 1, 1, 0]>, <207, 8, 22, 14, 12, 1, 0, [0, 0, 0, 1, 1, 0]>, <208, 9, 23, 14, 12, 1, 0, [0, 0, 0, 1, 1, 0]>, <209, 10, 24, 14, 12, 1, 0, [0, 0, 0, 1, 1, 0]>, <210, 11, 25, 14, 12, 1, 0, [0, 0, 0, 1, 1, 0]>, <211, 12, 26, 14, 12, 1, 0, [0, 0, 0, 1, 1, 0]>, <212, 13, 27, 14, 12, 1, 0, [0, 0, 0, 1, 1, 0]>, <213, 14, 28, 14, 12, 1, 0, [0, 0, 0, 1, 1, 0]>, <214, 15, 29, 14, 12, 1, 0, [0, 0, 0, 1, 1, 0]>, <215, 0, 14, 14, 13, 0, 1, [0, 1, 1, 0, 0, 0]>, <216, 1, 15, 14, 13, 0, 1, [0, 1, 1, 0, 0, 0]>, <217, 2, 16, 14, 13, 0, 1, [0, 1, 1, 0, 0, 0]>, <218, 3, 17, 14, 13, 0, 1, [0, 1, 1, 0, 0, 0]>, <219, 4, 18, 14, 13, 0, 1, [0, 1, 1, 0, 0, 0]>, <220, 5, 19, 14, 13, 0, 1, [0, 1, 1, 0, 0, 0]>, <221, 6, 20, 14, 13, 0, 1, [0, 1, 1, 0, 0, 0]>, <222, 7, 21, 14, 13, 0, 1, [0, 1, 1, 0, 0, 0]>, <223, 8, 22, 14, 13, 0, 1, [0, 1, 1, 0, 0, 0]>, <224, 9, 23, 14, 13, 0, 1, [0, 1, 1, 0, 0, 0]>, <225, 10, 24, 14, 13, 0, 1, [0, 1, 1, 0, 0, 0]>, <226, 11, 25, 14, 13, 0, 1, [0, 1, 1, 0, 0, 0]>, <227, 12, 26, 14, 13, 0, 1, [0, 1, 1, 0, 0, 0]>, <228, 13, 27, 14, 13, 0, 1, [0, 1, 1, 0, 0, 0]>, <229, 14, 28, 14, 13, 0, 1, [0, 1, 1, 0, 0, 0]>, <230, 15, 29, 14, 13, 0, 1, [0, 1, 1, 0, 0, 0]>, <231, 0, 12, 12, 14, 0, 0, [1, 1, 0, 0, 0, 0]>, <232, 1, 13, 12, 14, 0, 0, [1, 1, 0, 0, 0, 0]>, <233, 2, 14, 12, 14, 0, 0, [1, 1, 0, 0, 0, 0]>, <234, 3, 15, 12, 14, 0, 0, [1, 1, 0, 0, 0, 0]>, <235, 4, 16, 12, 14, 0, 0, [1, 1, 0, 0, 0, 0]>, <236, 5, 17, 12, 14, 0, 0, [1, 1, 0, 0, 0, 0]>, <237, 8, 20, 12, 14, 0, 0, [1, 1, 0, 0, 0, 0]>, <238, 9, 21, 12, 14, 0, 0, [1, 1, 0, 0, 0, 0]>, <239, 10, 22, 12, 14, 0, 0, [1, 1, 0, 0, 0, 0]>, <240, 11, 23, 12, 14, 0, 0, [1, 1, 0, 0, 0, 0]>, <241, 12, 24, 12, 14, 0, 0, [1, 1, 0, 0, 0, 0]>, <242, 13, 25, 12, 14, 0, 0, [1, 1, 0, 0, 0, 0]>, <243, 14, 26, 12, 14, 0, 0, [1, 1, 0, 0, 0, 0]>, <244, 15, 27, 12, 14, 0, 0, [1, 1, 0, 0, 0, 0]>, <245, 16, 28, 12, 14, 0, 0, [1, 1, 0, 0, 0, 0]>, <246, 17, 29, 12, 14, 0, 0, [1, 1, 0, 0, 0, 0]>};
